p cnf 240 2294
1 2 3 0
4 5 6 0
7 8 9 0
10 11 12 0
13 14 15 0
16 17 18 0
19 20 21 0
22 23 24 0
25 26 27 0
28 29 30 0
31 32 33 0
34 35 36 0
37 38 39 0
40 41 42 0
43 44 45 0
46 47 48 0
49 50 51 0
52 53 54 0
55 56 57 0
58 59 60 0
61 62 63 0
64 65 66 0
67 68 69 0
70 71 72 0
73 74 75 0
76 77 78 0
79 80 81 0
82 83 84 0
85 86 87 0
88 89 90 0
91 92 93 0
94 95 96 0
97 98 99 0
100 101 102 0
103 104 105 0
106 107 108 0
109 110 111 0
112 113 114 0
115 116 117 0
118 119 120 0
121 122 123 0
124 125 126 0
127 128 129 0
130 131 132 0
133 134 135 0
136 137 138 0
139 140 141 0
142 143 144 0
145 146 147 0
148 149 150 0
151 152 153 0
154 155 156 0
157 158 159 0
160 161 162 0
163 164 165 0
166 167 168 0
169 170 171 0
172 173 174 0
175 176 177 0
178 179 180 0
181 182 183 0
184 185 186 0
187 188 189 0
190 191 192 0
193 194 195 0
196 197 198 0
199 200 201 0
202 203 204 0
205 206 207 0
208 209 210 0
211 212 213 0
214 215 216 0
217 218 219 0
220 221 222 0
223 224 225 0
226 227 228 0
229 230 231 0
232 233 234 0
235 236 237 0
238 239 240 0
-1 -2 0
-1 -3 0
-2 -3 0
-4 -5 0
-4 -6 0
-5 -6 0
-7 -8 0
-7 -9 0
-8 -9 0
-10 -11 0
-10 -12 0
-11 -12 0
-13 -14 0
-13 -15 0
-14 -15 0
-16 -17 0
-16 -18 0
-17 -18 0
-19 -20 0
-19 -21 0
-20 -21 0
-22 -23 0
-22 -24 0
-23 -24 0
-25 -26 0
-25 -27 0
-26 -27 0
-28 -29 0
-28 -30 0
-29 -30 0
-31 -32 0
-31 -33 0
-32 -33 0
-34 -35 0
-34 -36 0
-35 -36 0
-37 -38 0
-37 -39 0
-38 -39 0
-40 -41 0
-40 -42 0
-41 -42 0
-43 -44 0
-43 -45 0
-44 -45 0
-46 -47 0
-46 -48 0
-47 -48 0
-49 -50 0
-49 -51 0
-50 -51 0
-52 -53 0
-52 -54 0
-53 -54 0
-55 -56 0
-55 -57 0
-56 -57 0
-58 -59 0
-58 -60 0
-59 -60 0
-61 -62 0
-61 -63 0
-62 -63 0
-64 -65 0
-64 -66 0
-65 -66 0
-67 -68 0
-67 -69 0
-68 -69 0
-70 -71 0
-70 -72 0
-71 -72 0
-73 -74 0
-73 -75 0
-74 -75 0
-76 -77 0
-76 -78 0
-77 -78 0
-79 -80 0
-79 -81 0
-80 -81 0
-82 -83 0
-82 -84 0
-83 -84 0
-85 -86 0
-85 -87 0
-86 -87 0
-88 -89 0
-88 -90 0
-89 -90 0
-91 -92 0
-91 -93 0
-92 -93 0
-94 -95 0
-94 -96 0
-95 -96 0
-97 -98 0
-97 -99 0
-98 -99 0
-100 -101 0
-100 -102 0
-101 -102 0
-103 -104 0
-103 -105 0
-104 -105 0
-106 -107 0
-106 -108 0
-107 -108 0
-109 -110 0
-109 -111 0
-110 -111 0
-112 -113 0
-112 -114 0
-113 -114 0
-115 -116 0
-115 -117 0
-116 -117 0
-118 -119 0
-118 -120 0
-119 -120 0
-121 -122 0
-121 -123 0
-122 -123 0
-124 -125 0
-124 -126 0
-125 -126 0
-127 -128 0
-127 -129 0
-128 -129 0
-130 -131 0
-130 -132 0
-131 -132 0
-133 -134 0
-133 -135 0
-134 -135 0
-136 -137 0
-136 -138 0
-137 -138 0
-139 -140 0
-139 -141 0
-140 -141 0
-142 -143 0
-142 -144 0
-143 -144 0
-145 -146 0
-145 -147 0
-146 -147 0
-148 -149 0
-148 -150 0
-149 -150 0
-151 -152 0
-151 -153 0
-152 -153 0
-154 -155 0
-154 -156 0
-155 -156 0
-157 -158 0
-157 -159 0
-158 -159 0
-160 -161 0
-160 -162 0
-161 -162 0
-163 -164 0
-163 -165 0
-164 -165 0
-166 -167 0
-166 -168 0
-167 -168 0
-169 -170 0
-169 -171 0
-170 -171 0
-172 -173 0
-172 -174 0
-173 -174 0
-175 -176 0
-175 -177 0
-176 -177 0
-178 -179 0
-178 -180 0
-179 -180 0
-181 -182 0
-181 -183 0
-182 -183 0
-184 -185 0
-184 -186 0
-185 -186 0
-187 -188 0
-187 -189 0
-188 -189 0
-190 -191 0
-190 -192 0
-191 -192 0
-193 -194 0
-193 -195 0
-194 -195 0
-196 -197 0
-196 -198 0
-197 -198 0
-199 -200 0
-199 -201 0
-200 -201 0
-202 -203 0
-202 -204 0
-203 -204 0
-205 -206 0
-205 -207 0
-206 -207 0
-208 -209 0
-208 -210 0
-209 -210 0
-211 -212 0
-211 -213 0
-212 -213 0
-214 -215 0
-214 -216 0
-215 -216 0
-217 -218 0
-217 -219 0
-218 -219 0
-220 -221 0
-220 -222 0
-221 -222 0
-223 -224 0
-223 -225 0
-224 -225 0
-226 -227 0
-226 -228 0
-227 -228 0
-229 -230 0
-229 -231 0
-230 -231 0
-232 -233 0
-232 -234 0
-233 -234 0
-235 -236 0
-235 -237 0
-236 -237 0
-238 -239 0
-238 -240 0
-239 -240 0
-1 -13 0
-1 -19 0
-1 -28 0
-1 -58 0
-1 -115 0
-1 -166 0
-1 -223 0
-1 -229 0
-4 -34 0
-4 -52 0
-4 -109 0
-4 -139 0
-4 -172 0
-4 -190 0
-4 -229 0
-4 -235 0
-7 -19 0
-7 -76 0
-7 -91 0
-7 -115 0
-7 -133 0
-7 -157 0
-7 -196 0
-7 -217 0
-10 -43 0
-10 -49 0
-10 -52 0
-10 -118 0
-10 -124 0
-10 -127 0
-10 -145 0
-10 -166 0
-10 -187 0
-13 -1 0
-13 -40 0
-13 -43 0
-13 -61 0
-13 -124 0
-13 -130 0
-13 -154 0
-13 -157 0
-13 -181 0
-16 -19 0
-16 -40 0
-16 -97 0
-16 -106 0
-16 -127 0
-16 -157 0
-16 -172 0
-16 -181 0
-19 -1 0
-19 -7 0
-19 -16 0
-19 -43 0
-19 -46 0
-19 -115 0
-19 -151 0
-22 -49 0
-22 -112 0
-22 -121 0
-22 -133 0
-22 -136 0
-22 -139 0
-22 -154 0
-22 -172 0
-22 -178 0
-25 -34 0
-25 -85 0
-25 -88 0
-25 -103 0
-25 -166 0
-25 -193 0
-25 -202 0
-25 -208 0
-28 -1 0
-28 -37 0
-28 -67 0
-28 -94 0
-28 -97 0
-28 -106 0
-28 -130 0
-28 -184 0
-31 -43 0
-31 -124 0
-31 -151 0
-31 -157 0
-31 -163 0
-31 -178 0
-31 -181 0
-31 -214 0
-34 -4 0
-34 -25 0
-34 -67 0
-34 -97 0
-34 -157 0
-34 -193 0
-34 -220 0
-34 -229 0
-37 -28 0
-37 -49 0
-37 -79 0
-37 -124 0
-37 -160 0
-37 -184 0
-37 -187 0
-37 -196 0
-37 -211 0
-40 -13 0
-40 -16 0
-40 -130 0
-40 -133 0
-40 -157 0
-40 -175 0
-40 -196 0
-40 -205 0
-43 -10 0
-43 -13 0
-43 -19 0
-43 -31 0
-43 -94 0
-43 -112 0
-43 -133 0
-43 -160 0
-46 -19 0
-46 -55 0
-46 -94 0
-46 -130 0
-46 -133 0
-46 -145 0
-46 -148 0
-46 -202 0
-49 -10 0
-49 -22 0
-49 -37 0
-49 -55 0
-49 -112 0
-49 -139 0
-49 -169 0
-49 -211 0
-52 -4 0
-52 -10 0
-52 -79 0
-52 -97 0
-52 -118 0
-52 -133 0
-52 -145 0
-52 -199 0
-52 -217 0
-55 -46 0
-55 -49 0
-55 -58 0
-55 -97 0
-55 -127 0
-55 -142 0
-55 -172 0
-55 -187 0
-55 -193 0
-58 -1 0
-58 -55 0
-58 -94 0
-58 -97 0
-58 -121 0
-58 -130 0
-58 -133 0
-58 -169 0
-58 -172 0
-61 -13 0
-61 -67 0
-61 -97 0
-61 -124 0
-61 -145 0
-61 -157 0
-61 -160 0
-61 -166 0
-61 -196 0
-64 -67 0
-64 -100 0
-64 -127 0
-64 -148 0
-64 -160 0
-64 -163 0
-64 -181 0
-64 -184 0
-67 -28 0
-67 -34 0
-67 -61 0
-67 -64 0
-67 -73 0
-67 -136 0
-67 -142 0
-67 -211 0
-67 -214 0
-70 -85 0
-70 -97 0
-70 -115 0
-70 -121 0
-70 -187 0
-70 -193 0
-70 -226 0
-70 -232 0
-73 -67 0
-73 -121 0
-73 -133 0
-73 -148 0
-73 -151 0
-73 -175 0
-73 -196 0
-73 -217 0
-76 -7 0
-76 -88 0
-76 -106 0
-76 -130 0
-76 -172 0
-76 -196 0
-76 -223 0
-76 -232 0
-79 -37 0
-79 -52 0
-79 -88 0
-79 -139 0
-79 -145 0
-79 -148 0
-79 -151 0
-79 -190 0
-79 -199 0
-82 -88 0
-82 -103 0
-82 -106 0
-82 -115 0
-82 -157 0
-82 -181 0
-82 -217 0
-85 -25 0
-85 -70 0
-85 -94 0
-85 -118 0
-85 -145 0
-85 -163 0
-85 -190 0
-85 -220 0
-88 -25 0
-88 -76 0
-88 -79 0
-88 -82 0
-88 -112 0
-88 -136 0
-88 -148 0
-88 -172 0
-91 -7 0
-91 -139 0
-91 -154 0
-91 -160 0
-91 -163 0
-91 -169 0
-91 -178 0
-91 -217 0
-91 -229 0
-94 -28 0
-94 -43 0
-94 -46 0
-94 -58 0
-94 -85 0
-94 -163 0
-94 -178 0
-94 -199 0
-94 -205 0
-97 -16 0
-97 -28 0
-97 -34 0
-97 -52 0
-97 -55 0
-97 -58 0
-97 -61 0
-97 -70 0
-100 -64 0
-100 -112 0
-100 -151 0
-100 -163 0
-100 -166 0
-100 -196 0
-100 -199 0
-100 -211 0
-103 -25 0
-103 -82 0
-103 -133 0
-103 -145 0
-103 -148 0
-103 -193 0
-103 -211 0
-103 -220 0
-106 -16 0
-106 -28 0
-106 -76 0
-106 -82 0
-106 -109 0
-106 -130 0
-106 -178 0
-106 -184 0
-106 -190 0
-109 -4 0
-109 -106 0
-109 -133 0
-109 -139 0
-109 -157 0
-109 -181 0
-109 -205 0
-109 -223 0
-112 -22 0
-112 -43 0
-112 -49 0
-112 -88 0
-112 -100 0
-112 -148 0
-112 -151 0
-115 -1 0
-115 -7 0
-115 -19 0
-115 -70 0
-115 -82 0
-115 -124 0
-115 -151 0
-115 -178 0
-115 -226 0
-118 -10 0
-118 -52 0
-118 -85 0
-118 -124 0
-118 -139 0
-118 -169 0
-118 -199 0
-118 -223 0
-118 -232 0
-121 -22 0
-121 -58 0
-121 -70 0
-121 -73 0
-121 -175 0
-121 -187 0
-121 -190 0
-121 -199 0
-121 -202 0
-124 -10 0
-124 -13 0
-124 -31 0
-124 -37 0
-124 -61 0
-124 -115 0
-124 -118 0
-124 -169 0
-124 -217 0
-127 -10 0
-127 -16 0
-127 -55 0
-127 -64 0
-127 -130 0
-127 -136 0
-127 -151 0
-127 -199 0
-127 -211 0
-130 -13 0
-130 -28 0
-130 -40 0
-130 -46 0
-130 -58 0
-130 -76 0
-130 -106 0
-130 -127 0
-133 -7 0
-133 -22 0
-133 -40 0
-133 -43 0
-133 -46 0
-133 -52 0
-133 -58 0
-133 -73 0
-133 -103 0
-136 -22 0
-136 -67 0
-136 -88 0
-136 -127 0
-136 -154 0
-136 -196 0
-136 -214 0
-136 -220 0
-136 -229 0
-139 -4 0
-139 -22 0
-139 -49 0
-139 -79 0
-139 -91 0
-139 -109 0
-139 -118 0
-139 -160 0
-142 -55 0
-142 -67 0
-142 -184 0
-142 -199 0
-142 -202 0
-142 -205 0
-142 -211 0
-142 -223 0
-145 -10 0
-145 -46 0
-145 -52 0
-145 -61 0
-145 -79 0
-145 -85 0
-145 -103 0
-145 -148 0
-145 -217 0
-148 -46 0
-148 -64 0
-148 -73 0
-148 -79 0
-148 -88 0
-148 -103 0
-148 -112 0
-151 -19 0
-151 -31 0
-151 -73 0
-151 -79 0
-151 -100 0
-151 -112 0
-151 -115 0
-154 -13 0
-154 -22 0
-154 -91 0
-154 -136 0
-154 -160 0
-154 -193 0
-154 -223 0
-154 -226 0
-157 -7 0
-157 -13 0
-157 -16 0
-157 -31 0
-157 -34 0
-157 -40 0
-157 -61 0
-157 -82 0
-157 -109 0
-160 -37 0
-160 -43 0
-160 -61 0
-160 -64 0
-160 -91 0
-160 -97 0
-160 -112 0
-160 -139 0
-160 -154 0
-163 -31 0
-163 -64 0
-163 -85 0
-163 -91 0
-163 -94 0
-163 -100 0
-163 -178 0
-166 -1 0
-166 -10 0
-166 -25 0
-166 -61 0
-166 -100 0
-166 -157 0
-166 -169 0
-166 -199 0
-166 -202 0
-169 -49 0
-169 -58 0
-169 -91 0
-169 -118 0
-169 -124 0
-169 -166 0
-169 -196 0
-169 -220 0
-172 -4 0
-172 -16 0
-172 -19 0
-172 -22 0
-172 -55 0
-172 -58 0
-172 -76 0
-172 -88 0
-175 -40 0
-175 -73 0
-175 -121 0
-175 -190 0
-175 -208 0
-175 -217 0
-178 -22 0
-178 -31 0
-178 -91 0
-178 -94 0
-178 -106 0
-178 -115 0
-178 -163 0
-178 -172 0
-178 -214 0
-181 -13 0
-181 -16 0
-181 -31 0
-181 -58 0
-181 -64 0
-181 -82 0
-181 -109 0
-184 -28 0
-184 -37 0
-184 -64 0
-184 -106 0
-184 -142 0
-184 -163 0
-184 -193 0
-184 -205 0
-184 -214 0
-187 -10 0
-187 -37 0
-187 -55 0
-187 -70 0
-187 -121 0
-187 -193 0
-187 -208 0
-187 -214 0
-190 -4 0
-190 -64 0
-190 -79 0
-190 -85 0
-190 -106 0
-190 -121 0
-193 -25 0
-193 -34 0
-193 -55 0
-193 -70 0
-193 -103 0
-193 -154 0
-193 -184 0
-193 -187 0
-193 -205 0
-196 -7 0
-196 -37 0
-196 -40 0
-196 -61 0
-196 -73 0
-196 -76 0
-196 -100 0
-196 -136 0
-199 -52 0
-199 -61 0
-199 -79 0
-199 -94 0
-199 -100 0
-199 -118 0
-199 -121 0
-199 -127 0
-199 -142 0
-202 -25 0
-202 -46 0
-202 -121 0
-202 -142 0
-202 -166 0
-202 -208 0
-202 -214 0
-205 -40 0
-205 -46 0
-205 -94 0
-205 -109 0
-205 -142 0
-205 -184 0
-205 -193 0
-205 -208 0
-208 -25 0
-208 -28 0
-208 -166 0
-208 -175 0
-208 -187 0
-208 -193 0
-208 -202 0
-211 -25 0
-211 -37 0
-211 -49 0
-211 -67 0
-211 -79 0
-211 -100 0
-211 -103 0
-211 -121 0
-211 -127 0
-214 -31 0
-214 -67 0
-214 -136 0
-214 -178 0
-214 -184 0
-214 -187 0
-214 -202 0
-217 -7 0
-217 -49 0
-217 -52 0
-217 -73 0
-217 -82 0
-217 -91 0
-217 -124 0
-217 -145 0
-220 -34 0
-220 -37 0
-220 -73 0
-220 -85 0
-220 -100 0
-220 -103 0
-220 -136 0
-220 -169 0
-220 -175 0
-223 -1 0
-223 -16 0
-223 -43 0
-223 -55 0
-223 -76 0
-223 -109 0
-223 -118 0
-223 -142 0
-223 -154 0
-226 -70 0
-226 -85 0
-226 -106 0
-226 -115 0
-226 -154 0
-226 -160 0
-229 -1 0
-229 -4 0
-229 -34 0
-229 -82 0
-229 -88 0
-229 -91 0
-229 -94 0
-229 -136 0
-229 -154 0
-232 -13 0
-232 -22 0
-232 -34 0
-232 -40 0
-232 -67 0
-232 -70 0
-232 -76 0
-232 -115 0
-232 -118 0
-235 -4 0
-235 -10 0
-235 -31 0
-235 -52 0
-235 -76 0
-235 -103 0
-235 -109 0
-235 -118 0
-235 -127 0
-238 -1 0
-238 -4 0
-238 -7 0
-238 -70 0
-238 -91 0
-238 -136 0
-238 -139 0
-238 -145 0
-2 -14 0
-2 -20 0
-2 -29 0
-2 -59 0
-2 -116 0
-2 -167 0
-2 -224 0
-2 -230 0
-5 -35 0
-5 -53 0
-5 -110 0
-5 -140 0
-5 -173 0
-5 -191 0
-5 -230 0
-5 -236 0
-8 -20 0
-8 -77 0
-8 -92 0
-8 -116 0
-8 -134 0
-8 -158 0
-8 -197 0
-8 -218 0
-11 -44 0
-11 -50 0
-11 -53 0
-11 -119 0
-11 -125 0
-11 -128 0
-11 -146 0
-11 -167 0
-11 -188 0
-14 -2 0
-14 -41 0
-14 -44 0
-14 -62 0
-14 -125 0
-14 -131 0
-14 -155 0
-14 -158 0
-14 -182 0
-17 -20 0
-17 -41 0
-17 -98 0
-17 -107 0
-17 -128 0
-17 -158 0
-17 -173 0
-17 -182 0
-20 -2 0
-20 -8 0
-20 -17 0
-20 -44 0
-20 -47 0
-20 -116 0
-20 -152 0
-23 -50 0
-23 -113 0
-23 -122 0
-23 -134 0
-23 -137 0
-23 -140 0
-23 -155 0
-23 -173 0
-23 -179 0
-26 -35 0
-26 -86 0
-26 -89 0
-26 -104 0
-26 -167 0
-26 -194 0
-26 -203 0
-26 -209 0
-29 -2 0
-29 -38 0
-29 -68 0
-29 -95 0
-29 -98 0
-29 -107 0
-29 -131 0
-29 -185 0
-32 -44 0
-32 -125 0
-32 -152 0
-32 -158 0
-32 -164 0
-32 -179 0
-32 -182 0
-32 -215 0
-35 -5 0
-35 -26 0
-35 -68 0
-35 -98 0
-35 -158 0
-35 -194 0
-35 -221 0
-35 -230 0
-38 -29 0
-38 -50 0
-38 -80 0
-38 -125 0
-38 -161 0
-38 -185 0
-38 -188 0
-38 -197 0
-38 -212 0
-41 -14 0
-41 -17 0
-41 -131 0
-41 -134 0
-41 -158 0
-41 -176 0
-41 -197 0
-41 -206 0
-44 -11 0
-44 -14 0
-44 -20 0
-44 -32 0
-44 -95 0
-44 -113 0
-44 -134 0
-44 -161 0
-47 -20 0
-47 -56 0
-47 -95 0
-47 -131 0
-47 -134 0
-47 -146 0
-47 -149 0
-47 -203 0
-50 -11 0
-50 -23 0
-50 -38 0
-50 -56 0
-50 -113 0
-50 -140 0
-50 -170 0
-50 -212 0
-53 -5 0
-53 -11 0
-53 -80 0
-53 -98 0
-53 -119 0
-53 -134 0
-53 -146 0
-53 -200 0
-53 -218 0
-56 -47 0
-56 -50 0
-56 -59 0
-56 -98 0
-56 -128 0
-56 -143 0
-56 -173 0
-56 -188 0
-56 -194 0
-59 -2 0
-59 -56 0
-59 -95 0
-59 -98 0
-59 -122 0
-59 -131 0
-59 -134 0
-59 -170 0
-59 -173 0
-62 -14 0
-62 -68 0
-62 -98 0
-62 -125 0
-62 -146 0
-62 -158 0
-62 -161 0
-62 -167 0
-62 -197 0
-65 -68 0
-65 -101 0
-65 -128 0
-65 -149 0
-65 -161 0
-65 -164 0
-65 -182 0
-65 -185 0
-68 -29 0
-68 -35 0
-68 -62 0
-68 -65 0
-68 -74 0
-68 -137 0
-68 -143 0
-68 -212 0
-68 -215 0
-71 -86 0
-71 -98 0
-71 -116 0
-71 -122 0
-71 -188 0
-71 -194 0
-71 -227 0
-71 -233 0
-74 -68 0
-74 -122 0
-74 -134 0
-74 -149 0
-74 -152 0
-74 -176 0
-74 -197 0
-74 -218 0
-77 -8 0
-77 -89 0
-77 -107 0
-77 -131 0
-77 -173 0
-77 -197 0
-77 -224 0
-77 -233 0
-80 -38 0
-80 -53 0
-80 -89 0
-80 -140 0
-80 -146 0
-80 -149 0
-80 -152 0
-80 -191 0
-80 -200 0
-83 -89 0
-83 -104 0
-83 -107 0
-83 -116 0
-83 -158 0
-83 -182 0
-83 -218 0
-86 -26 0
-86 -71 0
-86 -95 0
-86 -119 0
-86 -146 0
-86 -164 0
-86 -191 0
-86 -221 0
-89 -26 0
-89 -77 0
-89 -80 0
-89 -83 0
-89 -113 0
-89 -137 0
-89 -149 0
-89 -173 0
-92 -8 0
-92 -140 0
-92 -155 0
-92 -161 0
-92 -164 0
-92 -170 0
-92 -179 0
-92 -218 0
-92 -230 0
-95 -29 0
-95 -44 0
-95 -47 0
-95 -59 0
-95 -86 0
-95 -164 0
-95 -179 0
-95 -200 0
-95 -206 0
-98 -17 0
-98 -29 0
-98 -35 0
-98 -53 0
-98 -56 0
-98 -59 0
-98 -62 0
-98 -71 0
-101 -65 0
-101 -113 0
-101 -152 0
-101 -164 0
-101 -167 0
-101 -197 0
-101 -200 0
-101 -212 0
-104 -26 0
-104 -83 0
-104 -134 0
-104 -146 0
-104 -149 0
-104 -194 0
-104 -212 0
-104 -221 0
-107 -17 0
-107 -29 0
-107 -77 0
-107 -83 0
-107 -110 0
-107 -131 0
-107 -179 0
-107 -185 0
-107 -191 0
-110 -5 0
-110 -107 0
-110 -134 0
-110 -140 0
-110 -158 0
-110 -182 0
-110 -206 0
-110 -224 0
-113 -23 0
-113 -44 0
-113 -50 0
-113 -89 0
-113 -101 0
-113 -149 0
-113 -152 0
-116 -2 0
-116 -8 0
-116 -20 0
-116 -71 0
-116 -83 0
-116 -125 0
-116 -152 0
-116 -179 0
-116 -227 0
-119 -11 0
-119 -53 0
-119 -86 0
-119 -125 0
-119 -140 0
-119 -170 0
-119 -200 0
-119 -224 0
-119 -233 0
-122 -23 0
-122 -59 0
-122 -71 0
-122 -74 0
-122 -176 0
-122 -188 0
-122 -191 0
-122 -200 0
-122 -203 0
-125 -11 0
-125 -14 0
-125 -32 0
-125 -38 0
-125 -62 0
-125 -116 0
-125 -119 0
-125 -170 0
-125 -218 0
-128 -11 0
-128 -17 0
-128 -56 0
-128 -65 0
-128 -131 0
-128 -137 0
-128 -152 0
-128 -200 0
-128 -212 0
-131 -14 0
-131 -29 0
-131 -41 0
-131 -47 0
-131 -59 0
-131 -77 0
-131 -107 0
-131 -128 0
-134 -8 0
-134 -23 0
-134 -41 0
-134 -44 0
-134 -47 0
-134 -53 0
-134 -59 0
-134 -74 0
-134 -104 0
-137 -23 0
-137 -68 0
-137 -89 0
-137 -128 0
-137 -155 0
-137 -197 0
-137 -215 0
-137 -221 0
-137 -230 0
-140 -5 0
-140 -23 0
-140 -50 0
-140 -80 0
-140 -92 0
-140 -110 0
-140 -119 0
-140 -161 0
-143 -56 0
-143 -68 0
-143 -185 0
-143 -200 0
-143 -203 0
-143 -206 0
-143 -212 0
-143 -224 0
-146 -11 0
-146 -47 0
-146 -53 0
-146 -62 0
-146 -80 0
-146 -86 0
-146 -104 0
-146 -149 0
-146 -218 0
-149 -47 0
-149 -65 0
-149 -74 0
-149 -80 0
-149 -89 0
-149 -104 0
-149 -113 0
-152 -20 0
-152 -32 0
-152 -74 0
-152 -80 0
-152 -101 0
-152 -113 0
-152 -116 0
-155 -14 0
-155 -23 0
-155 -92 0
-155 -137 0
-155 -161 0
-155 -194 0
-155 -224 0
-155 -227 0
-158 -8 0
-158 -14 0
-158 -17 0
-158 -32 0
-158 -35 0
-158 -41 0
-158 -62 0
-158 -83 0
-158 -110 0
-161 -38 0
-161 -44 0
-161 -62 0
-161 -65 0
-161 -92 0
-161 -98 0
-161 -113 0
-161 -140 0
-161 -155 0
-164 -32 0
-164 -65 0
-164 -86 0
-164 -92 0
-164 -95 0
-164 -101 0
-164 -179 0
-167 -2 0
-167 -11 0
-167 -26 0
-167 -62 0
-167 -101 0
-167 -158 0
-167 -170 0
-167 -200 0
-167 -203 0
-170 -50 0
-170 -59 0
-170 -92 0
-170 -119 0
-170 -125 0
-170 -167 0
-170 -197 0
-170 -221 0
-173 -5 0
-173 -17 0
-173 -20 0
-173 -23 0
-173 -56 0
-173 -59 0
-173 -77 0
-173 -89 0
-176 -41 0
-176 -74 0
-176 -122 0
-176 -191 0
-176 -209 0
-176 -218 0
-179 -23 0
-179 -32 0
-179 -92 0
-179 -95 0
-179 -107 0
-179 -116 0
-179 -164 0
-179 -173 0
-179 -215 0
-182 -14 0
-182 -17 0
-182 -32 0
-182 -59 0
-182 -65 0
-182 -83 0
-182 -110 0
-185 -29 0
-185 -38 0
-185 -65 0
-185 -107 0
-185 -143 0
-185 -164 0
-185 -194 0
-185 -206 0
-185 -215 0
-188 -11 0
-188 -38 0
-188 -56 0
-188 -71 0
-188 -122 0
-188 -194 0
-188 -209 0
-188 -215 0
-191 -5 0
-191 -65 0
-191 -80 0
-191 -86 0
-191 -107 0
-191 -122 0
-194 -26 0
-194 -35 0
-194 -56 0
-194 -71 0
-194 -104 0
-194 -155 0
-194 -185 0
-194 -188 0
-194 -206 0
-197 -8 0
-197 -38 0
-197 -41 0
-197 -62 0
-197 -74 0
-197 -77 0
-197 -101 0
-197 -137 0
-200 -53 0
-200 -62 0
-200 -80 0
-200 -95 0
-200 -101 0
-200 -119 0
-200 -122 0
-200 -128 0
-200 -143 0
-203 -26 0
-203 -47 0
-203 -122 0
-203 -143 0
-203 -167 0
-203 -209 0
-203 -215 0
-206 -41 0
-206 -47 0
-206 -95 0
-206 -110 0
-206 -143 0
-206 -185 0
-206 -194 0
-206 -209 0
-209 -26 0
-209 -29 0
-209 -167 0
-209 -176 0
-209 -188 0
-209 -194 0
-209 -203 0
-212 -26 0
-212 -38 0
-212 -50 0
-212 -68 0
-212 -80 0
-212 -101 0
-212 -104 0
-212 -122 0
-212 -128 0
-215 -32 0
-215 -68 0
-215 -137 0
-215 -179 0
-215 -185 0
-215 -188 0
-215 -203 0
-218 -8 0
-218 -50 0
-218 -53 0
-218 -74 0
-218 -83 0
-218 -92 0
-218 -125 0
-218 -146 0
-221 -35 0
-221 -38 0
-221 -74 0
-221 -86 0
-221 -101 0
-221 -104 0
-221 -137 0
-221 -170 0
-221 -176 0
-224 -2 0
-224 -17 0
-224 -44 0
-224 -56 0
-224 -77 0
-224 -110 0
-224 -119 0
-224 -143 0
-224 -155 0
-227 -71 0
-227 -86 0
-227 -107 0
-227 -116 0
-227 -155 0
-227 -161 0
-230 -2 0
-230 -5 0
-230 -35 0
-230 -83 0
-230 -89 0
-230 -92 0
-230 -95 0
-230 -137 0
-230 -155 0
-233 -14 0
-233 -23 0
-233 -35 0
-233 -41 0
-233 -68 0
-233 -71 0
-233 -77 0
-233 -116 0
-233 -119 0
-236 -5 0
-236 -11 0
-236 -32 0
-236 -53 0
-236 -77 0
-236 -104 0
-236 -110 0
-236 -119 0
-236 -128 0
-239 -2 0
-239 -5 0
-239 -8 0
-239 -71 0
-239 -92 0
-239 -137 0
-239 -140 0
-239 -146 0
-3 -15 0
-3 -21 0
-3 -30 0
-3 -60 0
-3 -117 0
-3 -168 0
-3 -225 0
-3 -231 0
-6 -36 0
-6 -54 0
-6 -111 0
-6 -141 0
-6 -174 0
-6 -192 0
-6 -231 0
-6 -237 0
-9 -21 0
-9 -78 0
-9 -93 0
-9 -117 0
-9 -135 0
-9 -159 0
-9 -198 0
-9 -219 0
-12 -45 0
-12 -51 0
-12 -54 0
-12 -120 0
-12 -126 0
-12 -129 0
-12 -147 0
-12 -168 0
-12 -189 0
-15 -3 0
-15 -42 0
-15 -45 0
-15 -63 0
-15 -126 0
-15 -132 0
-15 -156 0
-15 -159 0
-15 -183 0
-18 -21 0
-18 -42 0
-18 -99 0
-18 -108 0
-18 -129 0
-18 -159 0
-18 -174 0
-18 -183 0
-21 -3 0
-21 -9 0
-21 -18 0
-21 -45 0
-21 -48 0
-21 -117 0
-21 -153 0
-24 -51 0
-24 -114 0
-24 -123 0
-24 -135 0
-24 -138 0
-24 -141 0
-24 -156 0
-24 -174 0
-24 -180 0
-27 -36 0
-27 -87 0
-27 -90 0
-27 -105 0
-27 -168 0
-27 -195 0
-27 -204 0
-27 -210 0
-30 -3 0
-30 -39 0
-30 -69 0
-30 -96 0
-30 -99 0
-30 -108 0
-30 -132 0
-30 -186 0
-33 -45 0
-33 -126 0
-33 -153 0
-33 -159 0
-33 -165 0
-33 -180 0
-33 -183 0
-33 -216 0
-36 -6 0
-36 -27 0
-36 -69 0
-36 -99 0
-36 -159 0
-36 -195 0
-36 -222 0
-36 -231 0
-39 -30 0
-39 -51 0
-39 -81 0
-39 -126 0
-39 -162 0
-39 -186 0
-39 -189 0
-39 -198 0
-39 -213 0
-42 -15 0
-42 -18 0
-42 -132 0
-42 -135 0
-42 -159 0
-42 -177 0
-42 -198 0
-42 -207 0
-45 -12 0
-45 -15 0
-45 -21 0
-45 -33 0
-45 -96 0
-45 -114 0
-45 -135 0
-45 -162 0
-48 -21 0
-48 -57 0
-48 -96 0
-48 -132 0
-48 -135 0
-48 -147 0
-48 -150 0
-48 -204 0
-51 -12 0
-51 -24 0
-51 -39 0
-51 -57 0
-51 -114 0
-51 -141 0
-51 -171 0
-51 -213 0
-54 -6 0
-54 -12 0
-54 -81 0
-54 -99 0
-54 -120 0
-54 -135 0
-54 -147 0
-54 -201 0
-54 -219 0
-57 -48 0
-57 -51 0
-57 -60 0
-57 -99 0
-57 -129 0
-57 -144 0
-57 -174 0
-57 -189 0
-57 -195 0
-60 -3 0
-60 -57 0
-60 -96 0
-60 -99 0
-60 -123 0
-60 -132 0
-60 -135 0
-60 -171 0
-60 -174 0
-63 -15 0
-63 -69 0
-63 -99 0
-63 -126 0
-63 -147 0
-63 -159 0
-63 -162 0
-63 -168 0
-63 -198 0
-66 -69 0
-66 -102 0
-66 -129 0
-66 -150 0
-66 -162 0
-66 -165 0
-66 -183 0
-66 -186 0
-69 -30 0
-69 -36 0
-69 -63 0
-69 -66 0
-69 -75 0
-69 -138 0
-69 -144 0
-69 -213 0
-69 -216 0
-72 -87 0
-72 -99 0
-72 -117 0
-72 -123 0
-72 -189 0
-72 -195 0
-72 -228 0
-72 -234 0
-75 -69 0
-75 -123 0
-75 -135 0
-75 -150 0
-75 -153 0
-75 -177 0
-75 -198 0
-75 -219 0
-78 -9 0
-78 -90 0
-78 -108 0
-78 -132 0
-78 -174 0
-78 -198 0
-78 -225 0
-78 -234 0
-81 -39 0
-81 -54 0
-81 -90 0
-81 -141 0
-81 -147 0
-81 -150 0
-81 -153 0
-81 -192 0
-81 -201 0
-84 -90 0
-84 -105 0
-84 -108 0
-84 -117 0
-84 -159 0
-84 -183 0
-84 -219 0
-87 -27 0
-87 -72 0
-87 -96 0
-87 -120 0
-87 -147 0
-87 -165 0
-87 -192 0
-87 -222 0
-90 -27 0
-90 -78 0
-90 -81 0
-90 -84 0
-90 -114 0
-90 -138 0
-90 -150 0
-90 -174 0
-93 -9 0
-93 -141 0
-93 -156 0
-93 -162 0
-93 -165 0
-93 -171 0
-93 -180 0
-93 -219 0
-93 -231 0
-96 -30 0
-96 -45 0
-96 -48 0
-96 -60 0
-96 -87 0
-96 -165 0
-96 -180 0
-96 -201 0
-96 -207 0
-99 -18 0
-99 -30 0
-99 -36 0
-99 -54 0
-99 -57 0
-99 -60 0
-99 -63 0
-99 -72 0
-102 -66 0
-102 -114 0
-102 -153 0
-102 -165 0
-102 -168 0
-102 -198 0
-102 -201 0
-102 -213 0
-105 -27 0
-105 -84 0
-105 -135 0
-105 -147 0
-105 -150 0
-105 -195 0
-105 -213 0
-105 -222 0
-108 -18 0
-108 -30 0
-108 -78 0
-108 -84 0
-108 -111 0
-108 -132 0
-108 -180 0
-108 -186 0
-108 -192 0
-111 -6 0
-111 -108 0
-111 -135 0
-111 -141 0
-111 -159 0
-111 -183 0
-111 -207 0
-111 -225 0
-114 -24 0
-114 -45 0
-114 -51 0
-114 -90 0
-114 -102 0
-114 -150 0
-114 -153 0
-117 -3 0
-117 -9 0
-117 -21 0
-117 -72 0
-117 -84 0
-117 -126 0
-117 -153 0
-117 -180 0
-117 -228 0
-120 -12 0
-120 -54 0
-120 -87 0
-120 -126 0
-120 -141 0
-120 -171 0
-120 -201 0
-120 -225 0
-120 -234 0
-123 -24 0
-123 -60 0
-123 -72 0
-123 -75 0
-123 -177 0
-123 -189 0
-123 -192 0
-123 -201 0
-123 -204 0
-126 -12 0
-126 -15 0
-126 -33 0
-126 -39 0
-126 -63 0
-126 -117 0
-126 -120 0
-126 -171 0
-126 -219 0
-129 -12 0
-129 -18 0
-129 -57 0
-129 -66 0
-129 -132 0
-129 -138 0
-129 -153 0
-129 -201 0
-129 -213 0
-132 -15 0
-132 -30 0
-132 -42 0
-132 -48 0
-132 -60 0
-132 -78 0
-132 -108 0
-132 -129 0
-135 -9 0
-135 -24 0
-135 -42 0
-135 -45 0
-135 -48 0
-135 -54 0
-135 -60 0
-135 -75 0
-135 -105 0
-138 -24 0
-138 -69 0
-138 -90 0
-138 -129 0
-138 -156 0
-138 -198 0
-138 -216 0
-138 -222 0
-138 -231 0
-141 -6 0
-141 -24 0
-141 -51 0
-141 -81 0
-141 -93 0
-141 -111 0
-141 -120 0
-141 -162 0
-144 -57 0
-144 -69 0
-144 -186 0
-144 -201 0
-144 -204 0
-144 -207 0
-144 -213 0
-144 -225 0
-147 -12 0
-147 -48 0
-147 -54 0
-147 -63 0
-147 -81 0
-147 -87 0
-147 -105 0
-147 -150 0
-147 -219 0
-150 -48 0
-150 -66 0
-150 -75 0
-150 -81 0
-150 -90 0
-150 -105 0
-150 -114 0
-153 -21 0
-153 -33 0
-153 -75 0
-153 -81 0
-153 -102 0
-153 -114 0
-153 -117 0
-156 -15 0
-156 -24 0
-156 -93 0
-156 -138 0
-156 -162 0
-156 -195 0
-156 -225 0
-156 -228 0
-159 -9 0
-159 -15 0
-159 -18 0
-159 -33 0
-159 -36 0
-159 -42 0
-159 -63 0
-159 -84 0
-159 -111 0
-162 -39 0
-162 -45 0
-162 -63 0
-162 -66 0
-162 -93 0
-162 -99 0
-162 -114 0
-162 -141 0
-162 -156 0
-165 -33 0
-165 -66 0
-165 -87 0
-165 -93 0
-165 -96 0
-165 -102 0
-165 -180 0
-168 -3 0
-168 -12 0
-168 -27 0
-168 -63 0
-168 -102 0
-168 -159 0
-168 -171 0
-168 -201 0
-168 -204 0
-171 -51 0
-171 -60 0
-171 -93 0
-171 -120 0
-171 -126 0
-171 -168 0
-171 -198 0
-171 -222 0
-174 -6 0
-174 -18 0
-174 -21 0
-174 -24 0
-174 -57 0
-174 -60 0
-174 -78 0
-174 -90 0
-177 -42 0
-177 -75 0
-177 -123 0
-177 -192 0
-177 -210 0
-177 -219 0
-180 -24 0
-180 -33 0
-180 -93 0
-180 -96 0
-180 -108 0
-180 -117 0
-180 -165 0
-180 -174 0
-180 -216 0
-183 -15 0
-183 -18 0
-183 -33 0
-183 -60 0
-183 -66 0
-183 -84 0
-183 -111 0
-186 -30 0
-186 -39 0
-186 -66 0
-186 -108 0
-186 -144 0
-186 -165 0
-186 -195 0
-186 -207 0
-186 -216 0
-189 -12 0
-189 -39 0
-189 -57 0
-189 -72 0
-189 -123 0
-189 -195 0
-189 -210 0
-189 -216 0
-192 -6 0
-192 -66 0
-192 -81 0
-192 -87 0
-192 -108 0
-192 -123 0
-195 -27 0
-195 -36 0
-195 -57 0
-195 -72 0
-195 -105 0
-195 -156 0
-195 -186 0
-195 -189 0
-195 -207 0
-198 -9 0
-198 -39 0
-198 -42 0
-198 -63 0
-198 -75 0
-198 -78 0
-198 -102 0
-198 -138 0
-201 -54 0
-201 -63 0
-201 -81 0
-201 -96 0
-201 -102 0
-201 -120 0
-201 -123 0
-201 -129 0
-201 -144 0
-204 -27 0
-204 -48 0
-204 -123 0
-204 -144 0
-204 -168 0
-204 -210 0
-204 -216 0
-207 -42 0
-207 -48 0
-207 -96 0
-207 -111 0
-207 -144 0
-207 -186 0
-207 -195 0
-207 -210 0
-210 -27 0
-210 -30 0
-210 -168 0
-210 -177 0
-210 -189 0
-210 -195 0
-210 -204 0
-213 -27 0
-213 -39 0
-213 -51 0
-213 -69 0
-213 -81 0
-213 -102 0
-213 -105 0
-213 -123 0
-213 -129 0
-216 -33 0
-216 -69 0
-216 -138 0
-216 -180 0
-216 -186 0
-216 -189 0
-216 -204 0
-219 -9 0
-219 -51 0
-219 -54 0
-219 -75 0
-219 -84 0
-219 -93 0
-219 -126 0
-219 -147 0
-222 -36 0
-222 -39 0
-222 -75 0
-222 -87 0
-222 -102 0
-222 -105 0
-222 -138 0
-222 -171 0
-222 -177 0
-225 -3 0
-225 -18 0
-225 -45 0
-225 -57 0
-225 -78 0
-225 -111 0
-225 -120 0
-225 -144 0
-225 -156 0
-228 -72 0
-228 -87 0
-228 -108 0
-228 -117 0
-228 -156 0
-228 -162 0
-231 -3 0
-231 -6 0
-231 -36 0
-231 -84 0
-231 -90 0
-231 -93 0
-231 -96 0
-231 -138 0
-231 -156 0
-234 -15 0
-234 -24 0
-234 -36 0
-234 -42 0
-234 -69 0
-234 -72 0
-234 -78 0
-234 -117 0
-234 -120 0
-237 -6 0
-237 -12 0
-237 -33 0
-237 -54 0
-237 -78 0
-237 -105 0
-237 -111 0
-237 -120 0
-237 -129 0
-240 -3 0
-240 -6 0
-240 -9 0
-240 -72 0
-240 -93 0
-240 -138 0
-240 -141 0
-240 -147 0
